SCIP Status        : solving was interrupted [time limit reached]
Total Time         :    3600.02
  solving          :    3600.01
  presolving       :       0.16 (included in solving)
  reading          :       0.01
  copying          :       0.59 (73 #copies) (minimal 0.00, maximal 0.10, average 0.01)
Original Problem   :
  Problem name     : waterno2_09
  Variables        : 1494 (0 binary, 81 integer, 0 implicit integer, 1413 continuous)
  Constraints      : 1852 initial, 1852 maximal
  Objective        : minimize, 81 non-zeros (abs.min = 1, abs.max = 1)
Presolved Problem  :
  Problem name     : t_waterno2_09
  Variables        : 2186 (77 binary, 0 integer, 0 implicit integer, 2109 continuous)
  Constraints      : 1449 initial, 1492 maximal
  Objective        : minimize, 81 non-zeros (abs.min = 1, abs.max = 1)
  Nonzeros         : 4271 constraint, 108 clique table
Presolvers         :   ExecTime  SetupTime  Calls  FixedVars   AggrVars   ChgTypes  ChgBounds   AddHoles    DelCons    AddCons   ChgSides   ChgCoefs
  boundshift       :       0.00       0.00      0          0          0          0          0          0          0          0          0          0
  convertinttobin  :       0.00       0.00      0          0          0          0          0          0          0          0          0          0
  domcol           :       0.00       0.00      2          0          0          0          0          0          0          0          0          0
  dualagg          :       0.00       0.00      0          0          0          0          0          0          0          0          0          0
  dualcomp         :       0.00       0.00      2          0          0          0          0          0          0          0          0          0
  dualinfer        :       0.00       0.00      0          0          0          0          0          0          0          0          0          0
  dualsparsify     :       0.00       0.00      1          0          0          0          0          0          0          0          0          0
  gateextraction   :       0.00       0.00      3          0          0          0          0          0          0          0          0          0
  implics          :       0.00       0.00      6          0          0          0          0          0          0          0          0          0
  inttobinary      :       0.00       0.00      0          0          0          0          0          0          0          0          0          0
  qpkktref         :       0.00       0.00      0          0          0          0          0          0          0          0          0          0
  redvub           :       0.00       0.00      0          0          0          0          0          0          0          0          0          0
  sparsify         :       0.00       0.00      1          0          0          0          0          0          0          0          0          0
  stuffing         :       0.00       0.00      0          0          0          0          0          0          0          0          0          0
  trivial          :       0.00       0.00     11        601          0          0          0          0          0          0          0          0
  tworowbnd        :       0.00       0.00      0          0          0          0          0          0          0          0          0          0
  dualfix          :       0.00       0.00     11        594          0          0          0          0          0          0          0          0
  genvbounds       :       0.00       0.00      5          0          0          0          0          0          0          0          0          0
  probing          :       0.03       0.00      1          0          0          0          1          0          0          0          0          0
  pseudoobj        :       0.00       0.00      1          0          0          0          0          0          0          0          0          0
  symmetry         :       0.00       0.00      1          0          0          0          0          0          0          0          0          0
  vbounds          :       0.00       0.00      2          0          0          0          0          0          0          0          0          0
  varbound         :       0.00       0.00     10          0          0          0          0          0          1          0          0         12
  setppc           :       0.00       0.00     14          0          0          0          0          0          0          0          0          0
  linear           :       0.02       0.00     17         12        433          0        806          0        503          0        315        314
  logicor          :       0.00       0.00      9          0          0          0          0          0          1          0          0          0
  bounddisjunction :       0.00       0.00      5          0          0          0          0          0          0          0          0          0
  nonlinear        :       0.10       0.02     19          0          0          0        676          0          0          0          0       -326
  benders          :       0.00       0.00      0          0          0          0          0          0          0          0          0          0
  components       :       0.00       0.00      2          0          0          0          0          0          0          0          0          0
  root node        :          -          -      -          7          -          -       2671          -          -          -          -          -
Constraints        :     Number  MaxNumber  #Separate #Propagate    #EnfoLP    #EnfoRelax  #EnfoPS    #Check   #ResProp    Cutoffs    DomReds       Cuts    Applied      Conss   Children
  benderslp        :          0          0          0          0      83424          0          0      37968          0          0          0          0          0          0          0
  integral         :          0          0          0          0      83424          0          0      37968          0          0      22815          0          0          6     157060
  varbound         :        282        282        125     623915          0          0          0      37962       2021        140     151038          2          0          0          0
  setppc           :         42         42        125     620575          0          0          0      14824        564          1      31027          0          0          0          0
  linear           :        537+       553        125     623804          0          0          0      14824       1382        225     609661         19          3          0          0
  logicor          :          2+         7        125      79322          0          0          0          0          2          3        382          4          2          0          0
  bounddisjunction :          5+        51          0     142317          0          0          0          0         98          0      14851          0          0          0          0
  nonlinear        :        581        581     352614     623576       3926          0          0      14585          0       1278    2774461    7282407    4599338          0       2624
  benders          :          0          0          0          0          0          0          0         29          0          0          0          0          0          0          0
  countsols        :          0          0          0          0          0          0          0         29          0          0          0          0          0          0          0
  components       :          0          0          0          0          0          0          0          0          0          0          0          0          0          0          0
Constraint Timings :  TotalTime  SetupTime   Separate  Propagate     EnfoLP     EnfoPS     EnfoRelax   Check    ResProp    SB-Prop
  benderslp        :       0.05       0.00       0.00       0.00       0.04       0.00       0.00       0.01       0.00       0.00
  integral         :      22.84       0.00       0.00       0.00      22.83       0.00       0.00       0.01       0.00       0.00
  varbound         :       2.35       0.00       0.01       1.68       0.00       0.00       0.00       0.63       0.00       0.04
  setppc           :       0.43       0.00       0.00       0.40       0.00       0.00       0.00       0.02       0.00       0.01
  linear           :       6.02       0.00       0.02       5.58       0.00       0.00       0.00       0.24       0.00       0.18
  logicor          :       0.16       0.00       0.00       0.16       0.00       0.00       0.00       0.00       0.00       0.00
  bounddisjunction :       0.50       0.00       0.00       0.49       0.00       0.00       0.00       0.00       0.00       0.01
  nonlinear        :     788.85       0.02     741.77      38.53       3.08       0.00       0.00       4.83       0.00       0.62
  benders          :       0.00       0.00       0.00       0.00       0.00       0.00       0.00       0.00       0.00       0.00
  countsols        :       0.00       0.00       0.00       0.00       0.00       0.00       0.00       0.00       0.00       0.00
  components       :       0.07       0.00       0.00       0.07       0.00       0.00       0.00       0.00       0.00       0.00
Propagators        : #Propagate   #ResProp    Cutoffs    DomReds
  dualfix          :         39          0          0          0
  genvbounds       :     175495       1120          0     171233
  nlobbt           :          0          0          0          0
  obbt             :         17          0          0         30
  probing          :          0          0          0          0
  pseudoobj        :     484991          0          0          0
  redcost          :     518679          0          0          0
  rootredcost      :          8          0          0          0
  symmetry         :          0          0          0          0
  vbounds          :     294310          0          0          0
Propagator Timings :  TotalTime  SetupTime   Presolve  Propagate    ResProp    SB-Prop
  dualfix          :       0.00       0.00       0.00       0.00       0.00       0.00
  genvbounds       :       1.75       0.00       0.00       1.75       0.00       0.01
  nlobbt           :       0.00       0.00       0.00       0.00       0.00       0.00
  obbt             :      10.77       0.00       0.00      10.77       0.00       0.00
  probing          :       0.03       0.00       0.03       0.00       0.00       0.00
  pseudoobj        :       3.54       0.00       0.00       3.54       0.00       0.00
  redcost          :       7.49       0.00       0.00       7.48       0.00       0.00
  rootredcost      :       0.14       0.00       0.00       0.14       0.00       0.00
  symmetry         :       0.09       0.00       0.00       0.08       0.00       0.00
  vbounds          :       0.43       0.00       0.00       0.43       0.00       0.01
Conflict Analysis  :       Time      Calls    Success    DomReds  Conflicts   Literals    Reconvs ReconvLits   Dualrays   Nonzeros   LP Iters   (pool size: [10000,10000])
  propagation      :       0.00        155        150          -        226        3.8         79        7.6          -          -          -
  infeasible LP    :       0.29        188        157          -        384       13.7        206        3.1        157       10.0          0
  bound exceed. LP :       0.08         73         28          -          0        0.0          0        0.0         28      152.6         20
  strong branching :       0.00          0          0          -          0        0.0          0        0.0          -          -          0
  pseudo solution  :       0.00          0          0          -          0        0.0          0        0.0          -          -          -
  applied globally :       0.06          -          -          0        374        3.1          -          -        142          -          -
  applied locally  :          -          -          -          0         74       10.7          -          -         43          -          -
Separators         :   ExecTime  SetupTime      Calls  RootCalls    Cutoffs    DomReds  FoundCuts ViaPoolAdd  DirectAdd    Applied ViaPoolApp  DirectApp      Conss
  cut pool         :       0.55          -      38294        234          -          -      13060      30702          -          -          -          -          -    (maximal pool size:       3496)
  aggregation      :      10.61       0.00       4466        125          0          0       6287      14145          6       4834       4830          4          0
  > cmir           :          -          -          -          -          -          -          -      12562          6       4205       4201          4          -
  > flowcover      :          -          -          -          -          -          -          -       1582          0        629        629          0          -
  > knapsackcover  :          -          -          -          -          -          -          -          1          0          0          0          0          -
  cgmip            :       0.00       0.00          0          0          0          0          0          0          0          0          0          0          0
  clique           :       0.01       0.00        125        125          0          0          0          0          0          0          0          0          0
  closecuts        :       0.00       0.00          0          0          0          0          0          0          0          0          0          0          0
  convexproj       :       0.00       0.00          0          0          0          0          0          0          0          0          0          0          0
  disjunctive      :       0.00       0.00          0          0          0          0          0          0          0          0          0          0          0
  eccuts           :       0.00       0.00          0          0          0          0          0          0          0          0          0          0          0
  gauge            :       0.00       0.00          0          0          0          0          0          0          0          0          0          0          0
  gomory           :       3.94       0.00       3255         20          0          0       3772      11718        177       2838       2797         41          0
  > gomorymi       :          -          -          -          -          -          -          -      11718        177       2838       2797         41          -
  > strongcg       :          -          -          -          -          -          -          -          0          0          0          0          0          -
  impliedbounds    :       0.42       0.00       4466        125          0          0       2698       4024          0       1926       1926          0          0
  interminor       :       0.00       0.00          0          0          0          0          0          0          0          0          0          0          0
  intobj           :       0.00       0.00          0          0          0          0          0          0          0          0          0          0          0
  mcf              :       0.02       0.00         21         21          0          0         28          4          0          0          0          0          0
  minor            :       0.02       0.00         86         86          0          0        845          0        845        153          0        153          0
  mixing           :       0.66       0.00       5278        125          0          0        437        791          0        545        545          0          0
  oddcycle         :       0.00       0.00          0          0          0          0          0          0          0          0          0          0          0
  rapidlearning    :       0.01       0.00          0          0          0          0          0          0          0          0          0          0          0
  rlt              :       0.01       0.00         20         20          0          0         20         19          0          7          7          0          0
  zerohalf         :       3.07       0.00       3275         40          0          0          1          1          0          0          0          0          0
Cutselectors       :   ExecTime  SetupTime      Calls  RootCalls   Selected     Forced   Filtered  RootSelec   RootForc   RootFilt 
  hybrid           :       3.78       0.00     351459        130    6645870          0     650641       3751          0       6655
Pricers            :   ExecTime  SetupTime      Calls       Vars
  problem variables:       0.00          -          0          0
Branching Rules    :   ExecTime  SetupTime   BranchLP  BranchExt   BranchPS    Cutoffs    DomReds       Cuts      Conss   Children
  allfullstrong    :       0.00       0.00          0          0          0          0          0          0          0          0
  cloud            :       0.00       0.00          0          0          0          0          0          0          0          0
  distribution     :       0.00       0.00          0          0          0          0          0          0          0          0
  fullstrong       :       0.00       0.00          0          0          0          0          0          0          0          0
  inference        :       0.00       0.00          0          0          0          0          0          0          0          0
  leastinf         :       0.00       0.00          0          0          0          0          0          0          0          0
  lookahead        :       0.00       0.00          0          0          0          0          0          0          0          0
  mostinf          :       0.00       0.00          0          0          0          0          0          0          0          0
  multaggr         :       0.00       0.00          0          0          0          0          0          0          0          0
  nodereopt        :       0.00       0.00          0          0          0          0          0          0          0          0
  pscost           :       0.00       0.00          0          0          0          0          0          0          0          0
  random           :       0.00       0.00          0          0          0          0          0          0          0          0
  relpscost        :      22.73       0.00      79498          0          0          0      22815          0          6     157060
  vanillafullstrong:       0.00       0.00          0          0          0          0          0          0          0          0
Primal Heuristics  :   ExecTime  SetupTime      Calls      Found       Best
  LP solutions     :       0.00          -          -          0          0
  relax solutions  :       0.00          -          -          0          0
  pseudo solutions :       0.00          -          -          0          0
  strong branching :       0.01          -          -          0          0
  actconsdiving    :       0.00       0.00          0          0          0
  adaptivediving   :       1.37       0.00         79          0          0
  alns             :      28.61       0.00         16          3          3
  bound            :       0.00       0.00          0          0          0
  clique           :       0.02       0.00          1          0          0
  coefdiving       :       0.00       0.00          0          0          0
  completesol      :       0.00       0.00          0          0          0
  conflictdiving   :      11.32       0.00        984          0          0
  crossover        :      57.87       0.00         19         10          0
  dins             :       0.00       0.00          0          0          0
  distributiondivin:      72.41       0.00        980          0          0
  dps              :       0.00       0.00          0          0          0
  dualval          :       0.00       0.00          0          0          0
  farkasdiving     :       0.00       0.00          0          0          0
  feaspump         :       0.75       0.00         18          0          0
  fixandinfer      :       0.00       0.00          0          0          0
  fracdiving       :      10.41       0.00        983          0          0
  gins             :      59.58       0.00         18         11          5
  guideddiving     :      10.33       0.00        984          0          0
  indicator        :       0.19       0.00          0          0          0
  indicatordiving  :       0.00       0.00          0          0          0
  intdiving        :       0.00       0.00          0          0          0
  intshifting      :       0.89       0.00        104          0          0
  linesearchdiving :       9.43       0.00        984          0          0
  localbranching   :       0.00       0.00          0          0          0
  locks            :       0.01       0.00          1          0          0
  lpface           :       0.04       0.00          0          0          0
  mpec             :       5.68       0.00          2          0          0
  multistart       :       0.00       0.00          0          0          0
  mutation         :       0.00       0.00          0          0          0
  nlpdiving        :       4.37       0.00          6          0          0
  objpscostdiving  :      21.72       0.00        379          0          0
  octane           :       0.00       0.00          0          0          0
  ofins            :       0.03       0.00          0          0          0
  oneopt           :       0.04       0.00          9          0          0
  padm             :       0.00       0.00          0          0          0
  proximity        :       0.00       0.00          0          0          0
  pscostdiving     :      18.85       0.00        981          0          0
  randrounding     :       0.74       0.00      23487          0          0
  rens             :       3.55       0.00          1          1          1
  reoptsols        :       0.00       0.00          0          0          0
  repair           :       0.00       0.00          0          0          0
  rins             :      11.69       0.00         16          0          0
  rootsoldiving    :      14.61       0.00        350          0          0
  rounding         :       1.09       0.00       9067          0          0
  shiftandpropagate:       0.02       0.00          1          0          0
  shifting         :       2.12       0.00       2858          0          0
  simplerounding   :       0.19       0.00          0          0          0
  subnlp           :       9.06       0.00         51          3          3
  trivial          :       0.00       0.00          2          0          0
  trivialnegation  :       0.00       0.00          0          0          0
  trustregion      :       0.00       0.00          0          0          0
  trysol           :       0.10       0.00          0          0          0
  twoopt           :       0.00       0.00          0          0          0
  undercover       :       0.06       0.00          1          0          0
  vbounds          :       0.00       0.00          0          0          0
  veclendiving     :       9.39       0.00        984          0          0
  zeroobj          :       0.00       0.00          0          0          0
  zirounding       :       0.06       0.00       1000          0          0
  other solutions  :          -          -          -          0          -
Expressions        :   #IntEval  IntEvalTi   #RevProp  RevPropTi    DomReds    Cutoffs  #Estimate  EstimTime  Branching  #Simplify SimplifyTi Simplified
  pow              :    4327057       0.79      75918       0.06      25550          0   52924695       4.20     221534        816       0.00          1
  prod             :    6271722       1.21      66165       0.05        513          7   45667188       2.33     307122       1301       0.00         59
  sum              :   10598791       1.95   10276369       2.42    2318109       1070     103414       0.01          0       2434       0.00       1483
  val              :          0       0.00          0       0.00          0          0          0       0.00          0          0       0.00          0
  var              :   48714908       1.98          0       0.00          0          0          0       0.00          0       4365       0.00        318
  varidx           :          0       0.00          0       0.00          0          0          0       0.00          0          0       0.00          0
Nlhdlrs            :    Detects  DetectAll DetectTime   #IntEval  IntEvalTi   #RevProp  RevPropTi    DomReds    Cutoffs   #Enforce   EnfoTime       Cuts  Branching
  soc              :          0          0       0.00          0       0.00          0       0.00          0          0          0       0.00          0          0
  convex           :          0          0       0.00          0       0.00          0       0.00          0          0          0       0.00          0          0
  concave          :          0          0       0.01          0       0.00          0       0.00          0          0          0       0.00          0          0
  signomial        :          0          0       0.00          0       0.00          0       0.00          0          0          0       0.00          0          0
  quotient         :          0          0       0.00          0       0.00          0       0.00          0          0          0       0.00          0          0
  quadratic        :          1         21       0.01      28492       0.06      28478       0.10      12357          0          0       0.00          0          0
  default          :       1964      41390       0.00   21189019       5.11   10423292       9.83    2344172       1121   98694131      82.35    6788842          0
  bilinear         :        243        486       0.00    4561597       0.48      64630       0.01          0          0   41062117       4.81         50          0
  perspective      :        415        830       0.00          0       0.00          0       0.00       3488          0   56617868     417.34     938921      12162
LP                 :       Time      Calls Iterations  Iter/call   Iter/sec  Time-0-It Calls-0-It    ItLimit
  primal LP        :     490.73      78475          0       0.00       0.00     490.71      78475
  dual LP          :    1510.51     434631   10330157      23.93    6838.84       1.80       2927
  lex dual LP      :       0.00          0          0       0.00          -
  barrier LP       :       0.00          0          0       0.00          -       0.00          0
  resolve instable :       0.05         10        107      10.70    2271.71
  diving/probing LP:     105.91      22309    1269611      56.91   11987.99
  strong branching :       7.88       2038     103129      50.60   13088.89          -          -        981
    (at root node) :          -         82       3132      38.20          -
  conflict analysis:       0.00          1         20      20.00          -
NLP relaxation     :
  solve time       :       4.34 (8 calls)
  convexity        :  nonconvex (777 linear rows, 0 convex ineq., 0 nonconvex ineq., 581 nonlinear eq. or two-sided ineq.)
NLP Solvers        :  #Problems  ProblemTi    #Solves  SolveTime      #Iter  Time/Iter      #Okay #TimeLimit #IterLimit #LObjLimit #Interrupt  #NumError #EvalError  #OutOfMem #LicenseEr #OtherTerm   #GlobOpt    #LocOpt  #Feasible #LocInfeas #GlobInfea #Unbounded   #Unknown
  ipopt            :         56       5.17         63      15.47       2200       0.01         60          0          3          0          0          0          0          0          0          0          0         52          1          3          0          0          7
B&B Tree           :
  number of runs   :          2
  nodes            :      80156 (79841 internal, 315 leaves)
  feasible leaves  :          0
  infeas. leaves   :        304
  objective leaves :         10
  nodes (total)    :      80157 (79842 internal, 315 leaves)
  nodes left       :      79528
  max depth        :         49
  max depth (total):         49
  backtracks       :       6438 (8.0%)
  early backtracks :          0 (0.0%)
  nodes exc. ref.  :          0 (0.0%)
  delayed cutoffs  :          0
  repropagations   :         61 (709 domain reductions, 0 cutoffs)
  avg switch length:       3.65
  switching time   :     535.65
Root Node          :
  First LP value   : +0.00000000000000e+00
  First LP Iters   :        404 (16646.07 Iter/sec)
  First LP Time    :       0.02
  Final Dual Bound : +9.21020168747019e+01
  Final Root Iters :      14927
  Root LP Estimate : +6.32629140206470e+02
Solution           :
  Solutions found  :         28 (12 improvements)
  First Solution   : +1.37847320972853e+03   (in run 1, after 1 nodes, 0.57 seconds, depth 0, found by <feaspump>)
  Gap First Sol.   :   infinite
  Gap Last Sol.    :     384.85 %
  Primal Bound     : +1.02787470147529e+03   (in run 2, after 29374 nodes, 1348.49 seconds, depth 30, found by <gins>)
  Dual Bound       : +2.29088647607033e+02
  Gap              :     348.68 %
Integrals          :      Total       Avg%
  primal-dual      :  286977.31      79.72
  primal-ref       :          -          - (not evaluated)
  dual-ref         :          -          - (not evaluated)
